NAME p01_budget_4p530
ROWS
 N  OBJ
 L  R0      
 G  R1      
 L  R2      
 G  R3      
 L  R4      
 G  R5      
 L  R6      
 G  R7      
 L  R8      
 G  R9      
 L  R10     
 G  R11     
 G  R12     
 G  R13     
 G  R14     
 G  R15     
 G  R16     
 G  R17     
 G  R18     
 G  R19     
 G  R20     
 G  R21     
 G  R22     
 G  R23     
 G  R24     
 G  R25     
 G  R26     
 G  R27     
 G  R28     
 G  R29     
 G  R30     
 G  R31     
 G  R32     
 G  R33     
 G  R34     
 G  R35     
 G  R36     
 G  R37     
 G  R38     
 G  R39     
 L  R40     
 G  R41     
 L  R42     
 G  R43     
 L  R44     
 G  R45     
 L  R46     
 G  R47     
 G  R48     
 G  R49     
 G  R50     
 G  R51     
 G  R52     
 G  R53     
 G  R54     
 G  R55     
 G  R56     
 G  R57     
 G  R58     
 G  R59     
 G  R60     
 G  R61     
 G  R62     
 G  R63     
 G  R64     
 G  R65     
 G  R66     
 G  R67     
 G  R68     
 G  R69     
 G  R70     
 G  R71     
 G  R72     
 G  R73     
 G  R74     
 G  R75     
 L  R76     
 G  R77     
 L  R78     
 G  R79     
 G  R80     
 G  R81     
 G  R82     
 G  R83     
 G  R84     
 G  R85     
 G  R86     
 G  R87     
 G  R88     
 G  R89     
 G  R90     
 G  R91     
 G  R92     
 G  R93     
 G  R94     
 G  R95     
 G  R96     
 G  R97     
 G  R98     
 G  R99     
 G  R100    
 G  R101    
 G  R102    
 G  R103    
 G  R104    
 G  R105    
 G  R106    
 G  R107    
 L  R108    
 G  R109    
 E  risk    
 L  risk_bound
COLUMNS
    Risk      risk      -1
    Risk      risk_bound  1
    0         R0        -1
    0         R1        -1
    0         R2        -1
    0         R3        -1
    0         R76       -1
    0         R77       -1
    1         R0        1
    1         R1        1
    1         R10       -1
    1         R11       -1
    1         R40       -1
    1         R41       -1
    1         R46       -1
    1         R47       -1
    3         R2        1
    3         R3        1
    3         R4        -1
    3         R5        -1
    3         R8        -1
    3         R9        -1
    3         R44       -1
    3         R45       -1
    4         R4        1
    4         R5        1
    4         R6        -1
    4         R7        -1
    5         R6        1
    5         R7        1
    5         R8        1
    5         R9        1
    5         R42       -1
    5         R43       -1
    6         R42       1
    6         R43       1
    6         R44       1
    6         R45       1
    6         R108      -1
    6         R109      -1
    7         R10       1
    7         R11       1
    7         R40       1
    7         R41       1
    7         R46       1
    7         R47       1
    7         R78       -1
    7         R79       -1
    9         R76       1
    9         R77       1
    9         R78       1
    9         R79       1
    9         R108      1
    9         R109      1
    c(0,1)_Rl  OBJ       1
    c(0,1)_Rl  R1        1
    c(0,1)_Ru  OBJ       1
    c(0,1)_Ru  R0        -1
    c(0,3)_Rl  OBJ       1
    c(0,3)_Rl  R3        1
    c(0,3)_Ru  OBJ       1
    c(0,3)_Ru  R2        -1
    c(3,4)_Rl  OBJ       1
    c(3,4)_Rl  R5        1
    c(3,4)_Ru  OBJ       1
    c(3,4)_Ru  R4        -1
    c(4,5)_Rl  OBJ       1
    c(4,5)_Rl  R7        1
    c(4,5)_Ru  OBJ       1
    c(4,5)_Ru  R6        -1
    c(3,5)_Rl  OBJ       1
    c(3,5)_Rl  R9        1
    c(3,5)_Ru  OBJ       1
    c(3,5)_Ru  R8        -1
    c(1,2)_l  R10       -1
    c(1,2)_l  R12       -1.0833282943838636e-03
    c(1,2)_l  R13       -1.9918514203289680e-03
    c(1,2)_l  R14       -3.4881411031402487e-03
    c(1,2)_l  R15       -5.8179689843606587e-03
    c(1,2)_l  R16       -9.2424904457543543e-03
    c(1,2)_l  R17       -1.3984497661033143e-02
    c(1,2)_l  R18       -2.0153244912909565e-02
    c(1,2)_l  R19       -2.7661985318608084e-02
    c(1,2)_l  R20       -3.6162792714187035e-02
    c(1,2)_l  R21       -4.5027810453304666e-02
    c(1,2)_l  R22       -5.3399839069246752e-02
    c(1,2)_l  R23       -6.0316942514049482e-02
    c(1,2)_l  R24       -6.4890174388321717e-02
    c(1,2)_l  R25       -6.6490380066905455e-02
    c(1,2)_u  R11       -1
    c(1,2)_u  R26       6.6490380066905455e-02
    c(1,2)_u  R27       6.4890174388321717e-02
    c(1,2)_u  R28       6.0316942514049489e-02
    c(1,2)_u  R29       5.3399839069246752e-02
    c(1,2)_u  R30       4.5027810453304666e-02
    c(1,2)_u  R31       3.6162792714187014e-02
    c(1,2)_u  R32       2.7661985318608084e-02
    c(1,2)_u  R33       2.0153244912909565e-02
    c(1,2)_u  R34       1.3984497661033143e-02
    c(1,2)_u  R35       9.2424904457543665e-03
    c(1,2)_u  R36       5.8179689843606587e-03
    c(1,2)_u  R37       3.4881411031402487e-03
    c(1,2)_u  R38       1.9918514203289728e-03
    c(1,2)_u  R39       1.0833282943838618e-03
    c(2,7)_Fl  R12       1
    c(2,7)_Fl  R13       1
    c(2,7)_Fl  R14       1
    c(2,7)_Fl  R15       1
    c(2,7)_Fl  R16       1
    c(2,7)_Fl  R17       1
    c(2,7)_Fl  R18       1
    c(2,7)_Fl  R19       1
    c(2,7)_Fl  R20       1
    c(2,7)_Fl  R21       1
    c(2,7)_Fl  R22       1
    c(2,7)_Fl  R23       1
    c(2,7)_Fl  R24       1
    c(2,7)_Fl  R25       1
    c(2,7)_Fl  risk      1
    c(2,7)_Fu  R26       1
    c(2,7)_Fu  R27       1
    c(2,7)_Fu  R28       1
    c(2,7)_Fu  R29       1
    c(2,7)_Fu  R30       1
    c(2,7)_Fu  R31       1
    c(2,7)_Fu  R32       1
    c(2,7)_Fu  R33       1
    c(2,7)_Fu  R34       1
    c(2,7)_Fu  R35       1
    c(2,7)_Fu  R36       1
    c(2,7)_Fu  R37       1
    c(2,7)_Fu  R38       1
    c(2,7)_Fu  R39       1
    c(2,7)_Fu  risk      1
    c(1,7)_Rl  OBJ       1
    c(1,7)_Rl  R41       1
    c(1,7)_Ru  OBJ       1
    c(1,7)_Ru  R40       -1
    c(5,6)_Rl  OBJ       1
    c(5,6)_Rl  R43       1
    c(5,6)_Ru  OBJ       1
    c(5,6)_Ru  R42       -1
    c(3,6)_Rl  OBJ       1
    c(3,6)_Rl  R45       1
    c(3,6)_Ru  OBJ       1
    c(3,6)_Ru  R44       -1
    c(7,8)_l  R47       1
    c(7,8)_l  R48       -1.0833282943838636e-03
    c(7,8)_l  R49       -1.9918514203289680e-03
    c(7,8)_l  R50       -3.4881411031402487e-03
    c(7,8)_l  R51       -5.8179689843606587e-03
    c(7,8)_l  R52       -9.2424904457543543e-03
    c(7,8)_l  R53       -1.3984497661033143e-02
    c(7,8)_l  R54       -2.0153244912909565e-02
    c(7,8)_l  R55       -2.7661985318608084e-02
    c(7,8)_l  R56       -3.6162792714187035e-02
    c(7,8)_l  R57       -4.5027810453304666e-02
    c(7,8)_l  R58       -5.3399839069246752e-02
    c(7,8)_l  R59       -6.0316942514049482e-02
    c(7,8)_l  R60       -6.4890174388321717e-02
    c(7,8)_l  R61       -6.6490380066905455e-02
    c(7,8)_l  R78       -1
    c(7,8)_l  R80       -1.0833282943838636e-03
    c(7,8)_l  R81       -1.9918514203289680e-03
    c(7,8)_l  R82       -3.4881411031402487e-03
    c(7,8)_l  R83       -5.8179689843606587e-03
    c(7,8)_l  R84       -9.2424904457543543e-03
    c(7,8)_l  R85       -1.3984497661033143e-02
    c(7,8)_l  R86       -2.0153244912909565e-02
    c(7,8)_l  R87       -2.7661985318608084e-02
    c(7,8)_l  R88       -3.6162792714187035e-02
    c(7,8)_l  R89       -4.5027810453304666e-02
    c(7,8)_l  R90       -5.3399839069246752e-02
    c(7,8)_l  R91       -6.0316942514049482e-02
    c(7,8)_l  R92       -6.4890174388321717e-02
    c(7,8)_l  R93       -6.6490380066905455e-02
    c(7,8)_u  R46       1
    c(7,8)_u  R62       6.6490380066905455e-02
    c(7,8)_u  R63       6.4890174388321717e-02
    c(7,8)_u  R64       6.0316942514049489e-02
    c(7,8)_u  R65       5.3399839069246752e-02
    c(7,8)_u  R66       4.5027810453304666e-02
    c(7,8)_u  R67       3.6162792714187014e-02
    c(7,8)_u  R68       2.7661985318608084e-02
    c(7,8)_u  R69       2.0153244912909565e-02
    c(7,8)_u  R70       1.3984497661033143e-02
    c(7,8)_u  R71       9.2424904457543665e-03
    c(7,8)_u  R72       5.8179689843606587e-03
    c(7,8)_u  R73       3.4881411031402487e-03
    c(7,8)_u  R74       1.9918514203289728e-03
    c(7,8)_u  R75       1.0833282943838618e-03
    c(7,8)_u  R79       -1
    c(7,8)_u  R94       6.6490380066905455e-02
    c(7,8)_u  R95       6.4890174388321717e-02
    c(7,8)_u  R96       6.0316942514049489e-02
    c(7,8)_u  R97       5.3399839069246752e-02
    c(7,8)_u  R98       4.5027810453304666e-02
    c(7,8)_u  R99       3.6162792714187014e-02
    c(7,8)_u  R100      2.7661985318608084e-02
    c(7,8)_u  R101      2.0153244912909565e-02
    c(7,8)_u  R102      1.3984497661033143e-02
    c(7,8)_u  R103      9.2424904457543665e-03
    c(7,8)_u  R104      5.8179689843606587e-03
    c(7,8)_u  R105      3.4881411031402487e-03
    c(7,8)_u  R106      1.9918514203289728e-03
    c(7,8)_u  R107      1.0833282943838618e-03
    c(1,8)_Fl  R48       1
    c(1,8)_Fl  R49       1
    c(1,8)_Fl  R50       1
    c(1,8)_Fl  R51       1
    c(1,8)_Fl  R52       1
    c(1,8)_Fl  R53       1
    c(1,8)_Fl  R54       1
    c(1,8)_Fl  R55       1
    c(1,8)_Fl  R56       1
    c(1,8)_Fl  R57       1
    c(1,8)_Fl  R58       1
    c(1,8)_Fl  R59       1
    c(1,8)_Fl  R60       1
    c(1,8)_Fl  R61       1
    c(1,8)_Fl  risk      1
    c(1,8)_Fu  R62       1
    c(1,8)_Fu  R63       1
    c(1,8)_Fu  R64       1
    c(1,8)_Fu  R65       1
    c(1,8)_Fu  R66       1
    c(1,8)_Fu  R67       1
    c(1,8)_Fu  R68       1
    c(1,8)_Fu  R69       1
    c(1,8)_Fu  R70       1
    c(1,8)_Fu  R71       1
    c(1,8)_Fu  R72       1
    c(1,8)_Fu  R73       1
    c(1,8)_Fu  R74       1
    c(1,8)_Fu  R75       1
    c(1,8)_Fu  risk      1
    c(0,9)_Rl  OBJ       1
    c(0,9)_Rl  R77       1
    c(0,9)_Ru  OBJ       1
    c(0,9)_Ru  R76       -1
    c(8,9)_Fl  R80       1
    c(8,9)_Fl  R81       1
    c(8,9)_Fl  R82       1
    c(8,9)_Fl  R83       1
    c(8,9)_Fl  R84       1
    c(8,9)_Fl  R85       1
    c(8,9)_Fl  R86       1
    c(8,9)_Fl  R87       1
    c(8,9)_Fl  R88       1
    c(8,9)_Fl  R89       1
    c(8,9)_Fl  R90       1
    c(8,9)_Fl  R91       1
    c(8,9)_Fl  R92       1
    c(8,9)_Fl  R93       1
    c(8,9)_Fl  risk      1
    c(8,9)_Fu  R94       1
    c(8,9)_Fu  R95       1
    c(8,9)_Fu  R96       1
    c(8,9)_Fu  R97       1
    c(8,9)_Fu  R98       1
    c(8,9)_Fu  R99       1
    c(8,9)_Fu  R100      1
    c(8,9)_Fu  R101      1
    c(8,9)_Fu  R102      1
    c(8,9)_Fu  R103      1
    c(8,9)_Fu  R104      1
    c(8,9)_Fu  R105      1
    c(8,9)_Fu  R106      1
    c(8,9)_Fu  R107      1
    c(8,9)_Fu  risk      1
    c(6,9)_Rl  OBJ       1
    c(6,9)_Rl  R109      1
    c(6,9)_Ru  OBJ       1
    c(6,9)_Ru  R108      -1
RHS
    RHS1      R0        1e+100
    RHS1      R1        0.001
    RHS1      R2        1e+100
    RHS1      R3        0.001
    RHS1      R4        30
    RHS1      R5        30
    RHS1      R6        1e+100
    RHS1      R7        0.001
    RHS1      R8        1e+100
    RHS1      R9        0.001
    RHS1      R10       1e+100
    RHS1      R11       0.001
    RHS1      R12       -1.1413432270571764e-02
    RHS1      R13       -0.0230270756099036
    RHS1      R14       -4.4135797834309966e-02
    RHS1      R15       -8.0089147163806829e-02
    RHS1      R16       -1.3747093306348709e-01
    RHS1      R17       -2.2320894879272857e-01
    RHS1      R18       -3.4291298219016714e-01
    RHS1      R19       -4.9856393782017128e-01
    RHS1      R20       -6.8603809489298118e-01
    RHS1      R21       -8.9328513232614148e-01
    RHS1      R22       -1.1000948251521545e+00
    RHS1      R23       -1.2801251986716498e+00
    RHS1      R24       -1.4052087130014117e+00
    RHS1      R25       -1.4510955945227213e+00
    RHS1      R26       2.5383272094916061e+00
    RHS1      R27       2.4882017502978915e+00
    RHS1      R28       2.3388913521713195e+00
    RHS1      R29       2.1038955190026507e+00
    RHS1      R30       1.8083834948721385e+00
    RHS1      R31       1.4837294679582402e+00
    RHS1      R32       1.1611551812963139e+00
    RHS1      R33       8.6628171258440667e-01
    RHS1      R34       6.1586091086926009e-01
    RHS1      R35       4.1707849368177469e-01
    RHS1      R36       2.6898899189783265e-01
    RHS1      R37       1.6515266835410494e-01
    RHS1      R38       9.6484009609834720e-02
    RHS1      R39       5.3586265392459968e-02
    RHS1      R40       1e+100
    RHS1      R41       0.001
    RHS1      R42       10
    RHS1      R43       10
    RHS1      R44       1e+100
    RHS1      R45       0.001
    RHS1      R46       1e+100
    RHS1      R47       0.001
    RHS1      R48       -1.1413432270571764e-02
    RHS1      R49       -0.0230270756099036
    RHS1      R50       -4.4135797834309966e-02
    RHS1      R51       -8.0089147163806829e-02
    RHS1      R52       -1.3747093306348709e-01
    RHS1      R53       -2.2320894879272857e-01
    RHS1      R54       -3.4291298219016714e-01
    RHS1      R55       -4.9856393782017128e-01
    RHS1      R56       -6.8603809489298118e-01
    RHS1      R57       -8.9328513232614148e-01
    RHS1      R58       -1.1000948251521545e+00
    RHS1      R59       -1.2801251986716498e+00
    RHS1      R60       -1.4052087130014117e+00
    RHS1      R61       -1.4510955945227213e+00
    RHS1      R62       2.5383272094916061e+00
    RHS1      R63       2.4882017502978915e+00
    RHS1      R64       2.3388913521713195e+00
    RHS1      R65       2.1038955190026507e+00
    RHS1      R66       1.8083834948721385e+00
    RHS1      R67       1.4837294679582402e+00
    RHS1      R68       1.1611551812963139e+00
    RHS1      R69       8.6628171258440667e-01
    RHS1      R70       6.1586091086926009e-01
    RHS1      R71       4.1707849368177469e-01
    RHS1      R72       2.6898899189783265e-01
    RHS1      R73       1.6515266835410494e-01
    RHS1      R74       9.6484009609834720e-02
    RHS1      R75       5.3586265392459968e-02
    RHS1      R76       36.0006
    RHS1      R78       1e+100
    RHS1      R79       0.001
    RHS1      R80       -1.1413432270571764e-02
    RHS1      R81       -0.0230270756099036
    RHS1      R82       -4.4135797834309966e-02
    RHS1      R83       -8.0089147163806829e-02
    RHS1      R84       -1.3747093306348709e-01
    RHS1      R85       -2.2320894879272857e-01
    RHS1      R86       -3.4291298219016714e-01
    RHS1      R87       -4.9856393782017128e-01
    RHS1      R88       -6.8603809489298118e-01
    RHS1      R89       -8.9328513232614148e-01
    RHS1      R90       -1.1000948251521545e+00
    RHS1      R91       -1.2801251986716498e+00
    RHS1      R92       -1.4052087130014117e+00
    RHS1      R93       -1.4510955945227213e+00
    RHS1      R94       2.5383272094916061e+00
    RHS1      R95       2.4882017502978915e+00
    RHS1      R96       2.3388913521713195e+00
    RHS1      R97       2.1038955190026507e+00
    RHS1      R98       1.8083834948721385e+00
    RHS1      R99       1.4837294679582402e+00
    RHS1      R100      1.1611551812963139e+00
    RHS1      R101      8.6628171258440667e-01
    RHS1      R102      6.1586091086926009e-01
    RHS1      R103      4.1707849368177469e-01
    RHS1      R104      2.6898899189783265e-01
    RHS1      R105      1.6515266835410494e-01
    RHS1      R106      9.6484009609834720e-02
    RHS1      R107      5.3586265392459968e-02
    RHS1      R108      1e+100
    RHS1      R109      0.001
    RHS1      risk_bound  4.53000000000001
BOUNDS
 UP BND1      c(1,2)_l  30
 LO BND1      c(1,2)_u  30
 UP BND1      c(7,8)_l  30
 LO BND1      c(7,8)_u  30
ENDATA
